
(set-logic HORN)
(declare-fun Z_2791 () Int)
(declare-fun S_642 (Int) Int)
(declare-fun diseqInt (Int Int) Bool)
(declare-fun unS_897 (Int Int) Bool)
(declare-fun isZ_578 (Int) Bool)
(declare-fun isS_578 (Int) Bool)
(assert (forall ((x_127491 Int))
	(unS_897 x_127491 (S_642 x_127491))))
(assert (isZ_578 Z_2791))
(assert (forall ((x_127493 Int))
	(isS_578 (S_642 x_127493))))
(assert (forall ((x_127494 Int))
	(diseqInt Z_2791 (S_642 x_127494))))
(assert (forall ((x_127495 Int))
	(diseqInt (S_642 x_127495) Z_2791)))
(assert (forall ((x_127496 Int) (x_127497 Int))
	(=> (diseqInt x_127496 x_127497) (diseqInt (S_642 x_127496) (S_642 x_127497)))))
(declare-fun add_483 (Int Int Int) Bool)
(declare-fun minus_469 (Int Int Int) Bool)
(declare-fun le_448 (Int Int) Bool)
(declare-fun ge_448 (Int Int) Bool)
(declare-fun lt_468 (Int Int) Bool)
(declare-fun gt_451 (Int Int) Bool)
(declare-fun mult_449 (Int Int Int) Bool)
(declare-fun div_448 (Int Int Int) Bool)
(declare-fun mod_450 (Int Int Int) Bool)
(assert (forall ((y_3258 Int))
	(add_483 y_3258 Z_2791 y_3258)))
(assert (forall ((x_127440 Int) (y_3258 Int) (r_678 Int))
	(=> (add_483 r_678 x_127440 y_3258) (add_483 (S_642 r_678) (S_642 x_127440) y_3258))))
(assert (forall ((y_3258 Int))
	(minus_469 Z_2791 Z_2791 y_3258)))
(assert (forall ((x_127440 Int) (y_3258 Int) (r_678 Int))
	(=> (minus_469 r_678 x_127440 y_3258) (minus_469 (S_642 r_678) (S_642 x_127440) y_3258))))
(assert (forall ((y_3258 Int))
	(le_448 Z_2791 y_3258)))
(assert (forall ((x_127440 Int) (y_3258 Int))
	(=> (le_448 x_127440 y_3258) (le_448 (S_642 x_127440) (S_642 y_3258)))))
(assert (forall ((y_3258 Int))
	(ge_448 y_3258 Z_2791)))
(assert (forall ((x_127440 Int) (y_3258 Int))
	(=> (ge_448 x_127440 y_3258) (ge_448 (S_642 x_127440) (S_642 y_3258)))))
(assert (forall ((y_3258 Int))
	(lt_468 Z_2791 (S_642 y_3258))))
(assert (forall ((x_127440 Int) (y_3258 Int))
	(=> (lt_468 x_127440 y_3258) (lt_468 (S_642 x_127440) (S_642 y_3258)))))
(assert (forall ((y_3258 Int))
	(gt_451 (S_642 y_3258) Z_2791)))
(assert (forall ((x_127440 Int) (y_3258 Int))
	(=> (gt_451 x_127440 y_3258) (gt_451 (S_642 x_127440) (S_642 y_3258)))))
(assert (forall ((y_3258 Int))
	(mult_449 Z_2791 Z_2791 y_3258)))
(assert (forall ((x_127440 Int) (y_3258 Int) (r_678 Int) (z_2792 Int))
	(=> (and (mult_449 r_678 x_127440 y_3258) (add_483 z_2792 r_678 y_3258)) (mult_449 z_2792 (S_642 x_127440) y_3258))))
(assert (forall ((x_127440 Int) (y_3258 Int))
	(=> (lt_468 x_127440 y_3258) (div_448 Z_2791 x_127440 y_3258))))
(assert (forall ((x_127440 Int) (y_3258 Int) (r_678 Int) (z_2792 Int))
	(=> (and (ge_448 x_127440 y_3258) (minus_469 z_2792 x_127440 y_3258) (div_448 r_678 z_2792 y_3258)) (div_448 (S_642 r_678) x_127440 y_3258))))
(assert (forall ((x_127440 Int) (y_3258 Int))
	(=> (lt_468 x_127440 y_3258) (mod_450 x_127440 x_127440 y_3258))))
(assert (forall ((x_127440 Int) (y_3258 Int) (r_678 Int) (z_2792 Int))
	(=> (and (ge_448 x_127440 y_3258) (minus_469 z_2792 x_127440 y_3258) (mod_450 r_678 z_2792 y_3258)) (mod_450 r_678 x_127440 y_3258))))
(declare-datatypes ((Bool_448 0)) (((false_448) (true_448))))
(declare-fun diseqBool_224 (Bool_448 Bool_448) Bool)
(declare-fun isfalse_224 (Bool_448) Bool)
(declare-fun istrue_224 (Bool_448) Bool)
(assert (isfalse_224 false_448))
(assert (istrue_224 true_448))
(assert (diseqBool_224 false_448 true_448))
(assert (diseqBool_224 true_448 false_448))
(declare-fun and_455 (Bool_448 Bool_448 Bool_448) Bool)
(declare-fun or_470 (Bool_448 Bool_448 Bool_448) Bool)
(declare-fun hence_448 (Bool_448 Bool_448 Bool_448) Bool)
(declare-fun not_453 (Bool_448 Bool_448) Bool)
(assert (and_455 false_448 false_448 false_448))
(assert (and_455 false_448 true_448 false_448))
(assert (and_455 false_448 false_448 true_448))
(assert (and_455 true_448 true_448 true_448))
(assert (or_470 false_448 false_448 false_448))
(assert (or_470 true_448 true_448 false_448))
(assert (or_470 true_448 false_448 true_448))
(assert (or_470 true_448 true_448 true_448))
(assert (hence_448 true_448 false_448 false_448))
(assert (hence_448 false_448 true_448 false_448))
(assert (hence_448 true_448 false_448 true_448))
(assert (hence_448 true_448 true_448 true_448))
(assert (not_453 true_448 false_448))
(assert (not_453 false_448 true_448))
(declare-datatypes ((pair_208 0)) (((pair_209 (projpair_416 Int) (projpair_417 Int)))))
(declare-fun diseqpair_104 (pair_208 pair_208) Bool)
(declare-fun projpair_418 (Int pair_208) Bool)
(declare-fun projpair_419 (Int pair_208) Bool)
(declare-fun ispair_104 (pair_208) Bool)
(assert (forall ((x_127500 Int) (x_127501 Int))
	(projpair_418 x_127500 (pair_209 x_127500 x_127501))))
(assert (forall ((x_127500 Int) (x_127501 Int))
	(projpair_419 x_127501 (pair_209 x_127500 x_127501))))
(assert (forall ((x_127503 Int) (x_127504 Int))
	(ispair_104 (pair_209 x_127503 x_127504))))
(assert (forall ((x_127505 Int) (x_127506 Int) (x_127507 Int) (x_127508 Int))
	(=> (diseqInt x_127505 x_127507) (diseqpair_104 (pair_209 x_127505 x_127506) (pair_209 x_127507 x_127508)))))
(assert (forall ((x_127505 Int) (x_127506 Int) (x_127507 Int) (x_127508 Int))
	(=> (diseqInt x_127506 x_127508) (diseqpair_104 (pair_209 x_127505 x_127506) (pair_209 x_127507 x_127508)))))
(declare-datatypes ((list_410 0)) (((nil_472) (cons_404 (head_808 Bool_448) (tail_814 list_410)))))
(declare-fun diseqlist_404 (list_410 list_410) Bool)
(declare-fun head_811 (Bool_448 list_410) Bool)
(declare-fun tail_817 (list_410 list_410) Bool)
(declare-fun isnil_472 (list_410) Bool)
(declare-fun iscons_404 (list_410) Bool)
(assert (forall ((x_127510 Bool_448) (x_127511 list_410))
	(head_811 x_127510 (cons_404 x_127510 x_127511))))
(assert (forall ((x_127510 Bool_448) (x_127511 list_410))
	(tail_817 x_127511 (cons_404 x_127510 x_127511))))
(assert (isnil_472 nil_472))
(assert (forall ((x_127513 Bool_448) (x_127514 list_410))
	(iscons_404 (cons_404 x_127513 x_127514))))
(assert (forall ((x_127515 Bool_448) (x_127516 list_410))
	(diseqlist_404 nil_472 (cons_404 x_127515 x_127516))))
(assert (forall ((x_127517 Bool_448) (x_127518 list_410))
	(diseqlist_404 (cons_404 x_127517 x_127518) nil_472)))
(assert (forall ((x_127519 Bool_448) (x_127520 list_410) (x_127521 Bool_448) (x_127522 list_410))
	(=> (diseqBool_224 x_127519 x_127521) (diseqlist_404 (cons_404 x_127519 x_127520) (cons_404 x_127521 x_127522)))))
(assert (forall ((x_127519 Bool_448) (x_127520 list_410) (x_127521 Bool_448) (x_127522 list_410))
	(=> (diseqlist_404 x_127520 x_127522) (diseqlist_404 (cons_404 x_127519 x_127520) (cons_404 x_127521 x_127522)))))
(declare-datatypes ((list_411 0)) (((nil_473) (cons_405 (head_809 Int) (tail_815 list_411)))))
(declare-fun diseqlist_405 (list_411 list_411) Bool)
(declare-fun head_812 (Int list_411) Bool)
(declare-fun tail_818 (list_411 list_411) Bool)
(declare-fun isnil_473 (list_411) Bool)
(declare-fun iscons_405 (list_411) Bool)
(assert (forall ((x_127524 Int) (x_127525 list_411))
	(head_812 x_127524 (cons_405 x_127524 x_127525))))
(assert (forall ((x_127524 Int) (x_127525 list_411))
	(tail_818 x_127525 (cons_405 x_127524 x_127525))))
(assert (isnil_473 nil_473))
(assert (forall ((x_127527 Int) (x_127528 list_411))
	(iscons_405 (cons_405 x_127527 x_127528))))
(assert (forall ((x_127529 Int) (x_127530 list_411))
	(diseqlist_405 nil_473 (cons_405 x_127529 x_127530))))
(assert (forall ((x_127531 Int) (x_127532 list_411))
	(diseqlist_405 (cons_405 x_127531 x_127532) nil_473)))
(assert (forall ((x_127533 Int) (x_127534 list_411) (x_127535 Int) (x_127536 list_411))
	(=> (diseqInt x_127533 x_127535) (diseqlist_405 (cons_405 x_127533 x_127534) (cons_405 x_127535 x_127536)))))
(assert (forall ((x_127533 Int) (x_127534 list_411) (x_127535 Int) (x_127536 list_411))
	(=> (diseqlist_405 x_127534 x_127536) (diseqlist_405 (cons_405 x_127533 x_127534) (cons_405 x_127535 x_127536)))))
(declare-datatypes ((list_412 0)) (((nil_474) (cons_406 (head_810 pair_208) (tail_816 list_412)))))
(declare-fun diseqlist_406 (list_412 list_412) Bool)
(declare-fun head_813 (pair_208 list_412) Bool)
(declare-fun tail_819 (list_412 list_412) Bool)
(declare-fun isnil_474 (list_412) Bool)
(declare-fun iscons_406 (list_412) Bool)
(assert (forall ((x_127538 pair_208) (x_127539 list_412))
	(head_813 x_127538 (cons_406 x_127538 x_127539))))
(assert (forall ((x_127538 pair_208) (x_127539 list_412))
	(tail_819 x_127539 (cons_406 x_127538 x_127539))))
(assert (isnil_474 nil_474))
(assert (forall ((x_127541 pair_208) (x_127542 list_412))
	(iscons_406 (cons_406 x_127541 x_127542))))
(assert (forall ((x_127543 pair_208) (x_127544 list_412))
	(diseqlist_406 nil_474 (cons_406 x_127543 x_127544))))
(assert (forall ((x_127545 pair_208) (x_127546 list_412))
	(diseqlist_406 (cons_406 x_127545 x_127546) nil_474)))
(assert (forall ((x_127547 pair_208) (x_127548 list_412) (x_127549 pair_208) (x_127550 list_412))
	(=> (diseqpair_104 x_127547 x_127549) (diseqlist_406 (cons_406 x_127547 x_127548) (cons_406 x_127549 x_127550)))))
(assert (forall ((x_127547 pair_208) (x_127548 list_412) (x_127549 pair_208) (x_127550 list_412))
	(=> (diseqlist_406 x_127548 x_127550) (diseqlist_406 (cons_406 x_127547 x_127548) (cons_406 x_127549 x_127550)))))
(declare-datatypes ((Maybe_26 0)) (((Nothing_26) (Just_26 (projJust_52 Int)))))
(declare-fun diseqMaybe_26 (Maybe_26 Maybe_26) Bool)
(declare-fun projJust_53 (Int Maybe_26) Bool)
(declare-fun isNothing_26 (Maybe_26) Bool)
(declare-fun isJust_26 (Maybe_26) Bool)
(assert (forall ((x_127552 Int))
	(projJust_53 x_127552 (Just_26 x_127552))))
(assert (isNothing_26 Nothing_26))
(assert (forall ((x_127554 Int))
	(isJust_26 (Just_26 x_127554))))
(assert (forall ((x_127555 Int))
	(diseqMaybe_26 Nothing_26 (Just_26 x_127555))))
(assert (forall ((x_127556 Int))
	(diseqMaybe_26 (Just_26 x_127556) Nothing_26)))
(assert (forall ((x_127557 Int) (x_127558 Int))
	(=> (diseqInt x_127557 x_127558) (diseqMaybe_26 (Just_26 x_127557) (Just_26 x_127558)))))
(declare-fun primEnumFromTo_13 (list_411 Int Int) Bool)
(assert (forall ((x_127325 Int) (y_3245 Int))
	(=> (gt_451 x_127325 y_3245) (primEnumFromTo_13 nil_473 x_127325 y_3245))))
(assert (forall ((x_127441 Int) (x_127347 list_411) (x_127325 Int) (y_3245 Int))
	(=> (and (le_448 x_127325 y_3245) (primEnumFromTo_13 x_127347 x_127441 y_3245) (add_483 x_127441 (S_642 Z_2791) x_127325)) (primEnumFromTo_13 (cons_405 x_127325 x_127347) x_127325 y_3245))))
(declare-fun index_6 (Maybe_26 list_411 Int) Bool)
(assert (forall ((z_2781 Int) (xs_908 list_411))
	(index_6 (Just_26 z_2781) (cons_405 z_2781 xs_908) Z_2791)))
(assert (forall ((x_127442 Int) (x_127349 Maybe_26) (z_2781 Int) (xs_908 list_411) (y_3246 Int))
	(=> (and (diseqInt y_3246 Z_2791) (index_6 x_127349 xs_908 x_127442) (minus_469 x_127442 y_3246 (S_642 Z_2791))) (index_6 x_127349 (cons_405 z_2781 xs_908) y_3246))))
(assert (forall ((y_3246 Int))
	(index_6 Nothing_26 nil_473 y_3246)))
(declare-fun formula_10 (list_410 list_411) Bool)
(assert (forall ((x_127353 list_410) (y_3247 Int) (z_2782 list_411))
	(=> (and (lt_468 y_3247 (S_642 (S_642 (S_642 Z_2791)))) (formula_10 x_127353 z_2782)) (formula_10 (cons_404 true_448 x_127353) (cons_405 y_3247 z_2782)))))
(assert (forall ((x_127355 list_410) (y_3247 Int) (z_2782 list_411))
	(=> (and (ge_448 y_3247 (S_642 (S_642 (S_642 Z_2791)))) (formula_10 x_127355 z_2782)) (formula_10 (cons_404 false_448 x_127355) (cons_405 y_3247 z_2782)))))
(assert (formula_10 nil_472 nil_473))
(declare-fun dodeca_42 (list_412 Int list_411) Bool)
(assert (forall ((x_127443 Int) (x_127444 Int) (x_127445 Int) (x_127446 Int) (x_127447 Int) (x_127448 Int) (x_127449 Int) (x_127358 list_412) (z_2783 Int) (x_127329 list_411) (x_127328 Int))
	(=> (and (dodeca_42 x_127358 x_127328 x_127329) (add_483 x_127443 x_127328 x_127328) (add_483 x_127444 x_127443 x_127328) (add_483 x_127445 x_127444 z_2783) (add_483 x_127446 x_127328 x_127328) (add_483 x_127447 x_127446 x_127328) (add_483 x_127448 (S_642 Z_2791) z_2783) (add_483 x_127449 x_127447 x_127448)) (dodeca_42 (cons_406 (pair_209 x_127445 x_127449) x_127358) x_127328 (cons_405 z_2783 x_127329)))))
(assert (forall ((x_127328 Int))
	(dodeca_42 nil_474 x_127328 nil_473)))
(declare-fun dodeca_43 (list_412 Int list_411) Bool)
(assert (forall ((x_127450 Int) (x_127451 Int) (x_127452 Int) (x_127453 Int) (x_127454 Int) (x_127361 list_412) (z_2784 Int) (x_127331 list_411) (x_127330 Int))
	(=> (and (dodeca_43 x_127361 x_127330 x_127331) (add_483 x_127450 x_127330 x_127330) (add_483 x_127451 x_127450 z_2784) (add_483 x_127452 x_127330 x_127330) (add_483 x_127453 x_127452 x_127330) (add_483 x_127454 x_127453 z_2784)) (dodeca_43 (cons_406 (pair_209 x_127451 x_127454) x_127361) x_127330 (cons_405 z_2784 x_127331)))))
(assert (forall ((x_127330 Int))
	(dodeca_43 nil_474 x_127330 nil_473)))
(declare-fun dodeca_44 (list_412 Int list_411) Bool)
(assert (forall ((x_127455 Int) (x_127456 Int) (x_127457 Int) (x_127458 Int) (x_127364 list_412) (z_2785 Int) (x_127333 list_411) (x_127332 Int))
	(=> (and (dodeca_44 x_127364 x_127332 x_127333) (add_483 x_127455 (S_642 Z_2791) z_2785) (add_483 x_127456 x_127332 x_127455) (add_483 x_127457 x_127332 x_127332) (add_483 x_127458 x_127457 z_2785)) (dodeca_44 (cons_406 (pair_209 x_127456 x_127458) x_127364) x_127332 (cons_405 z_2785 x_127333)))))
(assert (forall ((x_127332 Int))
	(dodeca_44 nil_474 x_127332 nil_473)))
(declare-fun dodeca_45 (list_412 Int list_411) Bool)
(assert (forall ((x_127459 Int) (x_127460 Int) (x_127461 Int) (x_127367 list_412) (z_2786 Int) (x_127335 list_411) (x_127334 Int))
	(=> (and (dodeca_45 x_127367 x_127334 x_127335) (add_483 x_127459 x_127334 z_2786) (add_483 x_127460 x_127334 x_127334) (add_483 x_127461 x_127460 z_2786)) (dodeca_45 (cons_406 (pair_209 x_127459 x_127461) x_127367) x_127334 (cons_405 z_2786 x_127335)))))
(assert (forall ((x_127334 Int))
	(dodeca_45 nil_474 x_127334 nil_473)))
(declare-fun dodeca_46 (list_412 Int list_411) Bool)
(assert (forall ((x_127462 Int) (x_127370 list_412) (z_2787 Int) (x_127337 list_411) (x_127336 Int))
	(=> (and (dodeca_46 x_127370 x_127336 x_127337) (add_483 x_127462 x_127336 z_2787)) (dodeca_46 (cons_406 (pair_209 z_2787 x_127462) x_127370) x_127336 (cons_405 z_2787 x_127337)))))
(assert (forall ((x_127336 Int))
	(dodeca_46 nil_474 x_127336 nil_473)))
(declare-fun dodeca_47 (list_412 list_411) Bool)
(assert (forall ((x_127463 Int) (x_127373 list_412) (y_3253 Int) (z_2788 list_411))
	(=> (and (dodeca_47 x_127373 z_2788) (add_483 x_127463 (S_642 Z_2791) y_3253)) (dodeca_47 (cons_406 (pair_209 y_3253 x_127463) x_127373) (cons_405 y_3253 z_2788)))))
(assert (dodeca_47 nil_474 nil_473))
(declare-fun colouring_12 (list_410 list_411 list_412) Bool)
(assert (forall ((x_127378 list_410) (c_83 Int) (u_32 Int) (v_33 Int) (z_2789 list_412) (a_127 list_411))
	(=> (and (colouring_12 x_127378 a_127 z_2789) (index_6 (Just_26 c_83) a_127 v_33) (index_6 (Just_26 c_83) a_127 u_32)) (colouring_12 (cons_404 false_448 x_127378) a_127 (cons_406 (pair_209 u_32 v_33) z_2789)))))
(assert (forall ((x_127382 list_410) (c_84 Int) (c_83 Int) (u_32 Int) (v_33 Int) (z_2789 list_412) (a_127 list_411))
	(=> (and (diseqInt c_83 c_84) (colouring_12 x_127382 a_127 z_2789) (index_6 (Just_26 c_84) a_127 v_33) (index_6 (Just_26 c_83) a_127 u_32)) (colouring_12 (cons_404 true_448 x_127382) a_127 (cons_406 (pair_209 u_32 v_33) z_2789)))))
(assert (forall ((x_127386 list_410) (c_83 Int) (u_32 Int) (v_33 Int) (z_2789 list_412) (a_127 list_411))
	(=> (and (colouring_12 x_127386 a_127 z_2789) (index_6 Nothing_26 a_127 v_33) (index_6 (Just_26 c_83) a_127 u_32)) (colouring_12 (cons_404 false_448 x_127386) a_127 (cons_406 (pair_209 u_32 v_33) z_2789)))))
(assert (forall ((x_127389 list_410) (u_32 Int) (v_33 Int) (z_2789 list_412) (a_127 list_411))
	(=> (and (colouring_12 x_127389 a_127 z_2789) (index_6 Nothing_26 a_127 u_32)) (colouring_12 (cons_404 false_448 x_127389) a_127 (cons_406 (pair_209 u_32 v_33) z_2789)))))
(assert (forall ((a_127 list_411))
	(colouring_12 nil_472 a_127 nil_474)))
(declare-fun and_454 (Bool_448 list_410) Bool)
(assert (forall ((x_127391 Bool_448) (x_127392 Bool_448) (y_3255 Bool_448) (xs_909 list_410))
	(=> (and (and_454 x_127392 xs_909) (and_455 x_127391 y_3255 x_127392)) (and_454 x_127391 (cons_404 y_3255 xs_909)))))
(assert (and_454 true_448 nil_472))
(declare-fun colouring_13 (Bool_448 list_412 list_411) Bool)
(assert (forall ((x_127394 Bool_448) (x_127395 list_410) (x_127341 list_412) (y_3256 list_411))
	(=> (and (colouring_12 x_127395 y_3256 x_127341) (and_454 x_127394 x_127395)) (colouring_13 x_127394 x_127341 y_3256))))
(declare-fun x_127342 (list_412 list_412 list_412) Bool)
(assert (forall ((x_127398 list_412) (z_2790 pair_208) (xs_910 list_412) (y_3257 list_412))
	(=> (x_127342 x_127398 xs_910 y_3257) (x_127342 (cons_406 z_2790 x_127398) (cons_406 z_2790 xs_910) y_3257))))
(assert (forall ((x_127399 list_412))
	(x_127342 x_127399 nil_474 x_127399)))
(declare-fun dodeca_48 (list_412 Int) Bool)
(assert (dodeca_48 nil_474 Z_2791))
(assert (forall ((x_127476 Int) (x_127473 Int) (x_127474 Int) (x_127475 Int) (x_127467 Int) (x_127468 Int) (x_127469 Int) (x_127470 Int) (x_127471 Int) (x_127472 Int) (x_127466 Int) (x_127465 Int) (x_127464 Int) (x_127401 list_412) (x_127402 list_411) (x_127403 list_412) (x_127404 list_411) (x_127405 list_412) (x_127406 list_411) (x_127407 list_412) (x_127408 list_411) (x_127409 list_412) (x_127410 list_411) (x_127411 list_412) (x_127412 list_411) (x_127413 list_412) (x_127414 list_412) (x_127415 list_412) (x_127416 list_412) (x_127417 list_412) (x_127344 Int))
	(=> (and (diseqInt x_127344 Z_2791) (primEnumFromTo_13 x_127402 Z_2791 x_127464) (dodeca_47 x_127403 x_127402) (primEnumFromTo_13 x_127404 Z_2791 x_127344) (dodeca_46 x_127405 x_127344 x_127404) (primEnumFromTo_13 x_127406 Z_2791 x_127344) (dodeca_45 x_127407 x_127344 x_127406) (primEnumFromTo_13 x_127408 Z_2791 x_127465) (dodeca_44 x_127409 x_127344 x_127408) (primEnumFromTo_13 x_127410 Z_2791 x_127344) (dodeca_43 x_127411 x_127344 x_127410) (primEnumFromTo_13 x_127412 Z_2791 x_127466) (dodeca_42 x_127413 x_127344 x_127412) (x_127342 x_127414 x_127411 (cons_406 (pair_209 x_127470 x_127472) x_127413)) (x_127342 x_127415 (cons_406 (pair_209 x_127344 x_127475) x_127409) x_127414) (x_127342 x_127416 x_127407 x_127415) (x_127342 x_127417 x_127405 x_127416) (x_127342 x_127401 (cons_406 (pair_209 x_127476 Z_2791) x_127403) x_127417) (minus_469 x_127476 x_127344 (S_642 Z_2791)) (add_483 x_127473 x_127344 x_127344) (minus_469 x_127474 x_127344 (S_642 Z_2791)) (add_483 x_127475 x_127473 x_127474) (add_483 x_127467 x_127344 x_127344) (add_483 x_127468 x_127467 x_127344) (minus_469 x_127469 x_127344 (S_642 Z_2791)) (add_483 x_127470 x_127468 x_127469) (add_483 x_127471 x_127344 x_127344) (add_483 x_127472 x_127471 x_127344) (minus_469 x_127466 x_127344 (S_642 Z_2791)) (minus_469 x_127465 x_127344 (S_642 Z_2791)) (minus_469 x_127464 x_127344 (S_642 Z_2791))) (dodeca_48 x_127401 x_127344))))
(assert (forall ((x_127489 Int) (x_127486 Int) (x_127487 Int) (x_127488 Int) (x_127480 Int) (x_127481 Int) (x_127482 Int) (x_127483 Int) (x_127484 Int) (x_127485 Int) (x_127479 Int) (x_127478 Int) (x_127477 Int) (x_127437 list_410) (x_127419 list_411) (x_127420 list_412) (x_127421 list_411) (x_127422 list_412) (x_127423 list_411) (x_127424 list_412) (x_127425 list_411) (x_127426 list_412) (x_127427 list_411) (x_127428 list_412) (x_127429 list_411) (x_127430 list_412) (x_127431 list_412) (x_127432 list_412) (x_127433 list_412) (x_127434 list_412) (x_127435 list_412) (a_128 list_411))
	(=> (and true true (formula_10 x_127437 a_128) (and_454 true_448 x_127437) (primEnumFromTo_13 x_127419 Z_2791 x_127477) (dodeca_47 x_127420 x_127419) (primEnumFromTo_13 x_127421 Z_2791 (S_642 (S_642 (S_642 (S_642 (S_642 Z_2791)))))) (dodeca_46 x_127422 (S_642 (S_642 (S_642 (S_642 (S_642 Z_2791))))) x_127421) (primEnumFromTo_13 x_127423 Z_2791 (S_642 (S_642 (S_642 (S_642 (S_642 Z_2791)))))) (dodeca_45 x_127424 (S_642 (S_642 (S_642 (S_642 (S_642 Z_2791))))) x_127423) (primEnumFromTo_13 x_127425 Z_2791 x_127478) (dodeca_44 x_127426 (S_642 (S_642 (S_642 (S_642 (S_642 Z_2791))))) x_127425) (primEnumFromTo_13 x_127427 Z_2791 (S_642 (S_642 (S_642 (S_642 (S_642 Z_2791)))))) (dodeca_43 x_127428 (S_642 (S_642 (S_642 (S_642 (S_642 Z_2791))))) x_127427) (primEnumFromTo_13 x_127429 Z_2791 x_127479) (dodeca_42 x_127430 (S_642 (S_642 (S_642 (S_642 (S_642 Z_2791))))) x_127429) (x_127342 x_127431 x_127428 (cons_406 (pair_209 x_127483 x_127485) x_127430)) (x_127342 x_127432 (cons_406 (pair_209 (S_642 (S_642 (S_642 (S_642 (S_642 Z_2791))))) x_127488) x_127426) x_127431) (x_127342 x_127433 x_127424 x_127432) (x_127342 x_127434 x_127422 x_127433) (x_127342 x_127435 (cons_406 (pair_209 x_127489 Z_2791) x_127420) x_127434) (colouring_13 true_448 x_127435 a_128) (minus_469 x_127489 (S_642 (S_642 (S_642 (S_642 (S_642 Z_2791))))) (S_642 Z_2791)) (add_483 x_127486 (S_642 (S_642 (S_642 (S_642 (S_642 Z_2791))))) (S_642 (S_642 (S_642 (S_642 (S_642 Z_2791)))))) (minus_469 x_127487 (S_642 (S_642 (S_642 (S_642 (S_642 Z_2791))))) (S_642 Z_2791)) (add_483 x_127488 x_127486 x_127487) (add_483 x_127480 (S_642 (S_642 (S_642 (S_642 (S_642 Z_2791))))) (S_642 (S_642 (S_642 (S_642 (S_642 Z_2791)))))) (add_483 x_127481 x_127480 (S_642 (S_642 (S_642 (S_642 (S_642 Z_2791)))))) (minus_469 x_127482 (S_642 (S_642 (S_642 (S_642 (S_642 Z_2791))))) (S_642 Z_2791)) (add_483 x_127483 x_127481 x_127482) (add_483 x_127484 (S_642 (S_642 (S_642 (S_642 (S_642 Z_2791))))) (S_642 (S_642 (S_642 (S_642 (S_642 Z_2791)))))) (add_483 x_127485 x_127484 (S_642 (S_642 (S_642 (S_642 (S_642 Z_2791)))))) (minus_469 x_127479 (S_642 (S_642 (S_642 (S_642 (S_642 Z_2791))))) (S_642 Z_2791)) (minus_469 x_127478 (S_642 (S_642 (S_642 (S_642 (S_642 Z_2791))))) (S_642 Z_2791)) (minus_469 x_127477 (S_642 (S_642 (S_642 (S_642 (S_642 Z_2791))))) (S_642 Z_2791))) false)))
(check-sat)
